c Maximum weighted independent set instances generated from exactcolors.
c scalef: 93368854 .
c An independent set of value > 93368854 defines an improving stable sets for coloring.
p edge 23 71
e 1 2
e 1 4
e 1 7
e 1 9
e 1 13
e 1 15
e 1 18
e 1 20
e 2 3
e 2 6
e 2 8
e 2 12
e 2 14
e 2 17
e 2 19
e 3 5
e 3 7
e 3 10
e 3 13
e 3 16
e 3 18
e 3 21
e 4 5
e 4 6
e 4 10
e 4 12
e 4 16
e 4 17
e 4 21
e 5 8
e 5 9
e 5 14
e 5 15
e 5 19
e 5 20
e 6 11
e 6 13
e 6 15
e 6 22
e 7 11
e 7 12
e 7 14
e 7 22
e 8 11
e 8 13
e 8 16
e 8 22
e 9 11
e 9 12
e 9 16
e 9 22
e 10 11
e 10 14
e 10 15
e 10 22
e 11 17
e 11 18
e 11 19
e 11 20
e 11 21
e 12 23
e 13 23
e 14 23
e 15 23
e 16 23
e 17 23
e 18 23
e 19 23
e 20 23
e 21 23
e 22 23
n 1 18351809
n 2 18351809
n 3 18351809
n 4 18351809
n 5 18351809
n 6 12234539
n 7 12234539
n 8 12234539
n 9 12234539
n 10 12234539
n 11 24469078
n 12 9658846
n 13 9658846
n 14 9658846
n 15 9658846
n 16 9658846
n 17 6439231
n 18 6439231
n 19 6439231
n 20 6439231
n 21 6439231
n 22 12878462
n 23 32196156
